50

94 0 172
92 23 253
89 24 175
89 4 281
87 14 189
82 37 325
82 30 167
81 36 265
80 17 281
80 39 300
78 20 251
71 26 150
70 0 304
67 14 332
66 7 209
63 12 324
58 11 222
52 9 170
50 10 255
48 21 203
46 3 354
36 17 353
34 5 153
33 10 199
31 1 357
30 1 286
27 6 345
26 10 230
21 2 242
21 8 327
20 10 322
19 10 360
18 5 312
18 8 172
17 1 182
12 6 228
11 5 305
11 1 174
11 0 149
11 2 316
10 1 248
10 3 186
7 3 196
7 1 359
7 2 293
6 0 337
5 3 332
5 1 225
4 2 332
3 1 321
